5 5
1 8 3 73 4 45 0 17 2 41
1 77 0 9 4 70 3 91 2 24
0 73 2 11 4 35 1 29 3 8
0 17 3 71 1 12 2 79 4 93
0 50 3 24 2 37 4 78 1 11
-1
0 2 5
0 2 4 5
0 3 5
0 2 5
0 1 2 3 5
-2
108 248
86 342 282
131 182
121 339
64 86 137 232

446 6
20 15 6 10 3
5 17 0 24 13
22 18 11 9 4
21 16 8 1 14
7 23 19 2 12
